#######################
Slurm job id: 17497813_99
Running on machine: p70
Running cmd: /nfs/shared/static-builds/gurobi1003 SOFTMEMLIMIT=125 MIPFocus=0 Presolve=1 TimeLimit=300 seed=8 /nfs/models/miplib2010/k16x240.mps.bz2
#######################
Set parameter TimeLimit to value 300
Set parameter SoftMemLimit to value 125
Set parameter LogFile to value 1003-MIPFocus0-Presolve1-TimeLimit300-k16x240-8.log
Set parameter Presolve to value 1
Set parameter Seed to value 8
Using license file /opt/gurobi/gurobi.lic

Gurobi Optimizer version 10.0.3 build v10.0.3rc0 (linux64)
Copyright (c) 2023, Gurobi Optimization, LLC

Read MPS format model from file /nfs/models/miplib2010/k16x240.mps.bz2
Reading time = 0.00 seconds
k16x240: 256 rows, 480 columns, 960 nonzeros

CPU model: Intel(R) Xeon(R) E-2388G CPU @ 3.20GHz, instruction set [SSE2|AVX|AVX2|AVX512]
Thread count: 8 physical cores, 16 logical processors, using up to 16 threads

Optimize a model with 256 rows, 480 columns and 960 nonzeros
Model fingerprint: 0x4e80885f
Variable types: 240 continuous, 240 integer (240 binary)
Coefficient statistics:
  Matrix range     [1e+00, 1e+03]
  Objective range  [1e+00, 1e+03]
  Bounds range     [1e+00, 1e+03]
  RHS range        [4e+00, 4e+02]
Found heuristic solution: objective 27117.000000
Presolve time: 0.00s
Presolved: 256 rows, 480 columns, 960 nonzeros
Variable types: 240 continuous, 240 integer (240 binary)

Root relaxation: objective 2.769838e+03, 51 iterations, 0.00 seconds (0.00 work units)

    Nodes    |    Current Node    |     Objective Bounds      |     Work
 Expl Unexpl |  Obj  Depth IntInf | Incumbent    BestBd   Gap | It/Node Time

     0     0 2769.83800    0   14 27117.0000 2769.83800  89.8%     -    0s
H    0     0                    11359.000000 2769.83800  75.6%     -    0s
H    0     0                    11195.000000 2769.83800  75.3%     -    0s
H    0     0                    11074.000000 8084.69631  27.0%     -    0s
     0     0 8084.69631    0   26 11074.0000 8084.69631  27.0%     -    0s
H    0     0                    10916.000000 8084.69631  25.9%     -    0s
     0     0 8528.16906    0   24 10916.0000 8528.16906  21.9%     -    0s
H    0     0                    10806.000000 8539.15185  21.0%     -    0s
     0     0 8539.15185    0   34 10806.0000 8539.15185  21.0%     -    0s
     0     0 8548.03675    0   29 10806.0000 8548.03675  20.9%     -    0s
     0     0 8731.72784    0   36 10806.0000 8731.72784  19.2%     -    0s
H    0     0                    10717.000000 8731.72784  18.5%     -    0s
     0     0 8793.93645    0   29 10717.0000 8793.93645  17.9%     -    0s
     0     0 8811.75933    0   32 10717.0000 8811.75933  17.8%     -    0s
     0     0 8817.74235    0   29 10717.0000 8817.74235  17.7%     -    0s
     0     0 8896.25709    0   39 10717.0000 8896.25709  17.0%     -    0s
     0     0 8919.16301    0   40 10717.0000 8919.16301  16.8%     -    0s
     0     0 8931.52844    0   35 10717.0000 8931.52844  16.7%     -    0s
     0     0 8932.88831    0   37 10717.0000 8932.88831  16.6%     -    0s
     0     0 9008.43783    0   43 10717.0000 9008.43783  15.9%     -    0s
     0     0 9055.43539    0   38 10717.0000 9055.43539  15.5%     -    0s
     0     0 9070.11987    0   43 10717.0000 9070.11987  15.4%     -    0s
     0     0 9082.21611    0   41 10717.0000 9082.21611  15.3%     -    0s
     0     0 9083.74322    0   37 10717.0000 9083.74322  15.2%     -    0s
     0     0 9095.42672    0   30 10717.0000 9095.42672  15.1%     -    0s
     0     0 9102.45419    0   32 10717.0000 9102.45419  15.1%     -    0s
     0     0 9117.56403    0   34 10717.0000 9117.56403  14.9%     -    0s
     0     0 9117.56403    0   34 10717.0000 9117.56403  14.9%     -    0s
     0     2 9118.59830    0   34 10717.0000 9118.59830  14.9%     -    0s
H  307   300                    10711.000000 9261.51875  13.5%  23.0    0s
H  372   336                    10683.000000 9285.89081  13.1%  20.8    0s
H  403   389                    10681.000000 9285.89081  13.1%  20.7    0s
H  934   727                    10678.000000 9349.86383  12.4%  20.0    0s
H 3229  1489                    10674.000000 9509.46106  10.9%  24.4    1s
 35875 12434 10473.7490   26   13 10674.0000 10093.0407  5.44%  28.1    5s
 74838 17298     cutoff   34      10674.0000 10258.1171  3.90%  29.3   10s
 117606 14347     cutoff   31      10674.0000 10404.0269  2.53%  29.8   15s

Cutting planes:
  Gomory: 1
  Lift-and-project: 21
  Cover: 71
  Implied bound: 37
  MIR: 195
  Flow cover: 327
  Flow path: 58
  Inf proof: 2
  Zero half: 12
  Network: 61
  Relax-and-lift: 3

Explored 152499 nodes (4396590 simplex iterations) in 18.72 seconds (22.10 work units)
Thread count was 16 (of 16 available processors)

Solution count 10: 10674 10678 10681 ... 11195

Optimal solution found (tolerance 1.00e-04)
Best objective 1.067400000000e+04, best bound 1.067400000000e+04, gap 0.0000%
